\Problem name: cor-lat-2f+r-u-10-10-10-5-100-3.333.lp

Maximize
 obj: 5 x_1 + 10 x_2 + 3 x_3 + x_4 + 3 x_5 + 3 x_6 + 10 x_7 + 8 x_8 + 7 x_9
      + 8 x_10 + 7 x_11 + 8 x_12 + 9 x_13 + 5 x_14 + 7 x_15 + 4 x_16 + 9 x_17
      + 2 x_18 + 5 x_19 + 5 x_20 + 4 x_21 + 7 x_22 + 5 x_23 + 7 x_24 + 2 x_25
      + 5 x_26 + 8 x_27 + 10 x_28 + 10 x_29 + x_30 + 3 x_31 + 10 x_32 + 10 x_33
      + 3 x_34 + 5 x_35 + 5 x_36 + 5 x_37 + 3 x_38 + 6 x_39 + 3 x_40 + 6 x_41
      + 8 x_42 + x_43 + 10 x_44 + 5 x_45 + 9 x_46 + 8 x_47 + 8 x_48 + 10 x_49
      + 3 x_50 + 8 x_51 + 2 x_52 + x_53 + 4 x_54 + 5 x_55 + 4 x_56 + 4 x_57
      + 4 x_58 + x_59 + 5 x_60 + 7 x_61 + 3 x_62 + 2 x_63 + 2 x_64 + 2 x_65
      + 5 x_66 + 6 x_67 + 4 x_68 + 2 x_69 + 5 x_70 + 6 x_71 + 8 x_72 + 10 x_73
      + x_74 + 3 x_75 + 10 x_76 + 4 x_77 + 4 x_78 + 6 x_79 + 2 x_80 + 7 x_81
      + x_82 + 5 x_83 + 5 x_84 + 10 x_85 + 9 x_86 + x_87 + 4 x_88 + 10 x_89
      + 4 x_90 + 2 x_91 + 3 x_92 + 9 x_93 + 5 x_94 + x_95 + 10 x_96 + 7 x_97
      + 9 x_98 + 10 x_99 + 3 x_100 + obj
Subject To
 c1:     10 x_2 + 8 x_3 + x_4 + 3 x_5 + x_6 + 6 x_7 + 6 x_8 + 2 x_9 + 9 x_10
         + 3 x_11 + 2 x_12 + 9 x_13 + 6 x_14 + 4 x_15 + 7 x_16 + 3 x_17
         + 5 x_18 + x_19 + 2 x_20 + 9 x_21 + 8 x_22 + 4 x_23 + 4 x_24 + x_25
         + 5 x_26 + 10 x_27 + 4 x_28 + 6 x_29 + 5 x_30 + 8 x_31 + 6 x_32 + x_33
         + x_34 + 6 x_35 + 8 x_36 + 8 x_37 + x_38 + x_39 + 10 x_40 + 7 x_41
         + 7 x_42 + 3 x_43 + 9 x_44 + 2 x_45 + 2 x_46 + 8 x_47 + 8 x_48
         + 7 x_49 + x_50 + 4 x_51 + 9 x_52 + 4 x_53 + 4 x_54 + 6 x_55 + 6 x_56
         + 10 x_57 + 3 x_58 + 4 x_59 + 5 x_60 + 6 x_61 + 3 x_62 + 6 x_63
         + 2 x_64 + 2 x_65 + 6 x_66 + x_67 + 6 x_68 + 8 x_69 + 9 x_70 + 6 x_72
         + 8 x_73 + 2 x_74 + 3 x_75 + 6 x_76 + 10 x_77 + 4 x_78 + 9 x_79
         + 5 x_80 + 7 x_81 + 10 x_82 + 9 x_83 + 9 x_84 + 5 x_85 + 5 x_86
         + 7 x_87 + 9 x_88 + 10 x_89 + 5 x_90 + 4 x_91 + 5 x_92 + 7 x_93
         + 6 x_94 + 4 x_95 + 8 x_96 + 9 x_97 + 2 x_98 + 4 x_99 - b <= 0
 c2:     s  = 100
 c3:     - s + x_0 + x_0_1  = 0
 c4:     - x_1 - x_2 - x_3 - x_4 - x_5 - x_6 - x_7 - x_8 - x_9 - x_10 - x_11
         - x_12 - x_13 - x_14 - x_15 - x_16 - x_17 - x_18 - x_19 - x_20 - x_21
         - x_22 - x_23 - x_24 - x_25 - x_26 - x_27 - x_28 - x_29 - x_30 - x_31
         - x_32 - x_33 - x_34 - x_35 - x_36 - x_37 - x_38 - x_39 - x_40 - x_41
         - x_42 - x_43 - x_44 - x_45 - x_46 - x_47 - x_48 - x_49 - x_50 - x_51
         - x_52 - x_53 - x_54 - x_55 - x_56 - x_57 - x_58 - x_59 - x_60 - x_61
         - x_62 - x_63 - x_64 - x_65 - x_66 - x_67 - x_68 - x_69 - x_70 - x_71
         - x_72 - x_73 - x_74 - x_75 - x_76 - x_77 - x_78 - x_79 - x_80 - x_81
         - x_82 - x_83 - x_84 - x_85 - x_86 - x_87 - x_88 - x_89 - x_90 - x_91
         - x_92 - x_93 - x_94 - x_95 - x_96 - x_97 - x_98 - x_99 - x_100
         + x_0_1  = 0
 c5:     - 100 x_1 + x_2_1 <= 0
 c6:     - 100 x_1 + x_11_1 <= 0
 c7:     - 100 x_2 + x_1_2 <= 0
 c8:     - 100 x_2 + x_3_2 <= 0
 c9:     - 100 x_2 + x_12_2 <= 0
 c10:    - 100 x_3 + x_2_3 <= 0
 c11:    - 100 x_3 + x_4_3 <= 0
 c12:    - 100 x_3 + x_13_3 <= 0
 c13:    - 100 x_4 + x_3_4 <= 0
 c14:    - 100 x_4 + x_5_4 <= 0
 c15:    - 100 x_4 + x_14_4 <= 0
 c16:    - 100 x_5 + x_4_5 <= 0
 c17:    - 100 x_5 + x_6_5 <= 0
 c18:    - 100 x_5 + x_15_5 <= 0
 c19:    - 100 x_6 + x_5_6 <= 0
 c20:    - 100 x_6 + x_7_6 <= 0
 c21:    - 100 x_6 + x_16_6 <= 0
 c22:    - 100 x_7 + x_6_7 <= 0
 c23:    - 100 x_7 + x_8_7 <= 0
 c24:    - 100 x_7 + x_17_7 <= 0
 c25:    - 100 x_8 + x_7_8 <= 0
 c26:    - 100 x_8 + x_9_8 <= 0
 c27:    - 100 x_8 + x_18_8 <= 0
 c28:    - 100 x_9 + x_8_9 <= 0
 c29:    - 100 x_9 + x_10_9 <= 0
 c30:    - 100 x_9 + x_19_9 <= 0
 c31:    - 100 x_10 + x_9_10 <= 0
 c32:    - 100 x_10 + x_20_10 <= 0
 c33:    - 100 x_11 + x_1_11 <= 0
 c34:    - 100 x_11 + x_12_11 <= 0
 c35:    - 100 x_11 + x_21_11 <= 0
 c36:    - 100 x_12 + x_2_12 <= 0
 c37:    - 100 x_12 + x_11_12 <= 0
 c38:    - 100 x_12 + x_13_12 <= 0
 c39:    - 100 x_12 + x_22_12 <= 0
 c40:    - 100 x_13 + x_3_13 <= 0
 c41:    - 100 x_13 + x_12_13 <= 0
 c42:    - 100 x_13 + x_14_13 <= 0
 c43:    - 100 x_13 + x_23_13 <= 0
 c44:    - 100 x_14 + x_4_14 <= 0
 c45:    - 100 x_14 + x_13_14 <= 0
 c46:    - 100 x_14 + x_15_14 <= 0
 c47:    - 100 x_14 + x_24_14 <= 0
 c48:    - 100 x_15 + x_5_15 <= 0
 c49:    - 100 x_15 + x_14_15 <= 0
 c50:    - 100 x_15 + x_16_15 <= 0
 c51:    - 100 x_15 + x_25_15 <= 0
 c52:    - 100 x_16 + x_6_16 <= 0
 c53:    - 100 x_16 + x_15_16 <= 0
 c54:    - 100 x_16 + x_17_16 <= 0
 c55:    - 100 x_16 + x_26_16 <= 0
 c56:    - 100 x_17 + x_7_17 <= 0
 c57:    - 100 x_17 + x_16_17 <= 0
 c58:    - 100 x_17 + x_18_17 <= 0
 c59:    - 100 x_17 + x_27_17 <= 0
 c60:    - 100 x_18 + x_8_18 <= 0
 c61:    - 100 x_18 + x_17_18 <= 0
 c62:    - 100 x_18 + x_19_18 <= 0
 c63:    - 100 x_18 + x_28_18 <= 0
 c64:    - 100 x_19 + x_9_19 <= 0
 c65:    - 100 x_19 + x_18_19 <= 0
 c66:    - 100 x_19 + x_20_19 <= 0
 c67:    - 100 x_19 + x_29_19 <= 0
 c68:    - 100 x_20 + x_10_20 <= 0
 c69:    - 100 x_20 + x_19_20 <= 0
 c70:    - 100 x_20 + x_30_20 <= 0
 c71:    - 100 x_21 + x_11_21 <= 0
 c72:    - 100 x_21 + x_22_21 <= 0
 c73:    - 100 x_21 + x_31_21 <= 0
 c74:    - 100 x_22 + x_12_22 <= 0
 c75:    - 100 x_22 + x_21_22 <= 0
 c76:    - 100 x_22 + x_23_22 <= 0
 c77:    - 100 x_22 + x_32_22 <= 0
 c78:    - 100 x_23 + x_13_23 <= 0
 c79:    - 100 x_23 + x_22_23 <= 0
 c80:    - 100 x_23 + x_24_23 <= 0
 c81:    - 100 x_23 + x_33_23 <= 0
 c82:    - 100 x_24 + x_14_24 <= 0
 c83:    - 100 x_24 + x_23_24 <= 0
 c84:    - 100 x_24 + x_25_24 <= 0
 c85:    - 100 x_24 + x_34_24 <= 0
 c86:    - 100 x_25 + x_15_25 <= 0
 c87:    - 100 x_25 + x_24_25 <= 0
 c88:    - 100 x_25 + x_26_25 <= 0
 c89:    - 100 x_25 + x_35_25 <= 0
 c90:    - 100 x_26 + x_16_26 <= 0
 c91:    - 100 x_26 + x_25_26 <= 0
 c92:    - 100 x_26 + x_27_26 <= 0
 c93:    - 100 x_26 + x_36_26 <= 0
 c94:    - 100 x_27 + x_17_27 <= 0
 c95:    - 100 x_27 + x_26_27 <= 0
 c96:    - 100 x_27 + x_28_27 <= 0
 c97:    - 100 x_27 + x_37_27 <= 0
 c98:    - 100 x_28 + x_18_28 <= 0
 c99:    - 100 x_28 + x_27_28 <= 0
 c100:   - 100 x_28 + x_29_28 <= 0
 c101:   - 100 x_28 + x_38_28 <= 0
 c102:   - 100 x_29 + x_19_29 <= 0
 c103:   - 100 x_29 + x_28_29 <= 0
 c104:   - 100 x_29 + x_30_29 <= 0
 c105:   - 100 x_29 + x_39_29 <= 0
 c106:   - 100 x_30 + x_20_30 <= 0
 c107:   - 100 x_30 + x_29_30 <= 0
 c108:   - 100 x_30 + x_40_30 <= 0
 c109:   - 100 x_31 + x_21_31 <= 0
 c110:   - 100 x_31 + x_32_31 <= 0
 c111:   - 100 x_31 + x_41_31 <= 0
 c112:   - 100 x_32 + x_22_32 <= 0
 c113:   - 100 x_32 + x_31_32 <= 0
 c114:   - 100 x_32 + x_33_32 <= 0
 c115:   - 100 x_32 + x_42_32 <= 0
 c116:   - 100 x_33 + x_23_33 <= 0
 c117:   - 100 x_33 + x_32_33 <= 0
 c118:   - 100 x_33 + x_34_33 <= 0
 c119:   - 100 x_33 + x_43_33 <= 0
 c120:   - 100 x_34 + x_24_34 <= 0
 c121:   - 100 x_34 + x_33_34 <= 0
 c122:   - 100 x_34 + x_35_34 <= 0
 c123:   - 100 x_34 + x_44_34 <= 0
 c124:   - 100 x_35 + x_25_35 <= 0
 c125:   - 100 x_35 + x_34_35 <= 0
 c126:   - 100 x_35 + x_36_35 <= 0
 c127:   - 100 x_35 + x_45_35 <= 0
 c128:   - 100 x_36 + x_26_36 <= 0
 c129:   - 100 x_36 + x_35_36 <= 0
 c130:   - 100 x_36 + x_37_36 <= 0
 c131:   - 100 x_36 + x_46_36 <= 0
 c132:   - 100 x_37 + x_27_37 <= 0
 c133:   - 100 x_37 + x_36_37 <= 0
 c134:   - 100 x_37 + x_38_37 <= 0
 c135:   - 100 x_37 + x_47_37 <= 0
 c136:   - 100 x_38 + x_28_38 <= 0
 c137:   - 100 x_38 + x_37_38 <= 0
 c138:   - 100 x_38 + x_39_38 <= 0
 c139:   - 100 x_38 + x_48_38 <= 0
 c140:   - 100 x_39 + x_29_39 <= 0
 c141:   - 100 x_39 + x_38_39 <= 0
 c142:   - 100 x_39 + x_40_39 <= 0
 c143:   - 100 x_39 + x_49_39 <= 0
 c144:   - 100 x_40 + x_30_40 <= 0
 c145:   - 100 x_40 + x_39_40 <= 0
 c146:   - 100 x_40 + x_50_40 <= 0
 c147:   - 100 x_41 + x_31_41 <= 0
 c148:   - 100 x_41 + x_42_41 <= 0
 c149:   - 100 x_41 + x_51_41 <= 0
 c150:   - 100 x_42 + x_32_42 <= 0
 c151:   - 100 x_42 + x_41_42 <= 0
 c152:   - 100 x_42 + x_43_42 <= 0
 c153:   - 100 x_42 + x_52_42 <= 0
 c154:   - 100 x_43 + x_33_43 <= 0
 c155:   - 100 x_43 + x_42_43 <= 0
 c156:   - 100 x_43 + x_44_43 <= 0
 c157:   - 100 x_43 + x_53_43 <= 0
 c158:   - 100 x_44 + x_34_44 <= 0
 c159:   - 100 x_44 + x_43_44 <= 0
 c160:   - 100 x_44 + x_45_44 <= 0
 c161:   - 100 x_44 + x_54_44 <= 0
 c162:   - 100 x_45 + x_35_45 <= 0
 c163:   - 100 x_45 + x_44_45 <= 0
 c164:   - 100 x_45 + x_46_45 <= 0
 c165:   - 100 x_45 + x_55_45 <= 0
 c166:   - 100 x_46 + x_36_46 <= 0
 c167:   - 100 x_46 + x_45_46 <= 0
 c168:   - 100 x_46 + x_47_46 <= 0
 c169:   - 100 x_46 + x_56_46 <= 0
 c170:   - 100 x_47 + x_37_47 <= 0
 c171:   - 100 x_47 + x_46_47 <= 0
 c172:   - 100 x_47 + x_48_47 <= 0
 c173:   - 100 x_47 + x_57_47 <= 0
 c174:   - 100 x_48 + x_38_48 <= 0
 c175:   - 100 x_48 + x_47_48 <= 0
 c176:   - 100 x_48 + x_49_48 <= 0
 c177:   - 100 x_48 + x_58_48 <= 0
 c178:   - 100 x_49 + x_39_49 <= 0
 c179:   - 100 x_49 + x_48_49 <= 0
 c180:   - 100 x_49 + x_50_49 <= 0
 c181:   - 100 x_49 + x_59_49 <= 0
 c182:   - 100 x_50 + x_40_50 <= 0
 c183:   - 100 x_50 + x_49_50 <= 0
 c184:   - 100 x_50 + x_60_50 <= 0
 c185:   - 100 x_51 + x_41_51 <= 0
 c186:   - 100 x_51 + x_52_51 <= 0
 c187:   - 100 x_51 + x_61_51 <= 0
 c188:   - 100 x_52 + x_42_52 <= 0
 c189:   - 100 x_52 + x_51_52 <= 0
 c190:   - 100 x_52 + x_53_52 <= 0
 c191:   - 100 x_52 + x_62_52 <= 0
 c192:   - 100 x_53 + x_43_53 <= 0
 c193:   - 100 x_53 + x_52_53 <= 0
 c194:   - 100 x_53 + x_54_53 <= 0
 c195:   - 100 x_53 + x_63_53 <= 0
 c196:   - 100 x_54 + x_44_54 <= 0
 c197:   - 100 x_54 + x_53_54 <= 0
 c198:   - 100 x_54 + x_55_54 <= 0
 c199:   - 100 x_54 + x_64_54 <= 0
 c200:   - 100 x_55 + x_45_55 <= 0
 c201:   - 100 x_55 + x_54_55 <= 0
 c202:   - 100 x_55 + x_56_55 <= 0
 c203:   - 100 x_55 + x_65_55 <= 0
 c204:   - 100 x_56 + x_46_56 <= 0
 c205:   - 100 x_56 + x_55_56 <= 0
 c206:   - 100 x_56 + x_57_56 <= 0
 c207:   - 100 x_56 + x_66_56 <= 0
 c208:   - 100 x_57 + x_47_57 <= 0
 c209:   - 100 x_57 + x_56_57 <= 0
 c210:   - 100 x_57 + x_58_57 <= 0
 c211:   - 100 x_57 + x_67_57 <= 0
 c212:   - 100 x_58 + x_48_58 <= 0
 c213:   - 100 x_58 + x_57_58 <= 0
 c214:   - 100 x_58 + x_59_58 <= 0
 c215:   - 100 x_58 + x_68_58 <= 0
 c216:   - 100 x_59 + x_49_59 <= 0
 c217:   - 100 x_59 + x_58_59 <= 0
 c218:   - 100 x_59 + x_60_59 <= 0
 c219:   - 100 x_59 + x_69_59 <= 0
 c220:   - 100 x_60 + x_50_60 <= 0
 c221:   - 100 x_60 + x_59_60 <= 0
 c222:   - 100 x_60 + x_70_60 <= 0
 c223:   - 100 x_61 + x_51_61 <= 0
 c224:   - 100 x_61 + x_62_61 <= 0
 c225:   - 100 x_61 + x_71_61 <= 0
 c226:   - 100 x_62 + x_52_62 <= 0
 c227:   - 100 x_62 + x_61_62 <= 0
 c228:   - 100 x_62 + x_63_62 <= 0
 c229:   - 100 x_62 + x_72_62 <= 0
 c230:   - 100 x_63 + x_53_63 <= 0
 c231:   - 100 x_63 + x_62_63 <= 0
 c232:   - 100 x_63 + x_64_63 <= 0
 c233:   - 100 x_63 + x_73_63 <= 0
 c234:   - 100 x_64 + x_54_64 <= 0
 c235:   - 100 x_64 + x_63_64 <= 0
 c236:   - 100 x_64 + x_65_64 <= 0
 c237:   - 100 x_64 + x_74_64 <= 0
 c238:   - 100 x_65 + x_55_65 <= 0
 c239:   - 100 x_65 + x_64_65 <= 0
 c240:   - 100 x_65 + x_66_65 <= 0
 c241:   - 100 x_65 + x_75_65 <= 0
 c242:   - 100 x_66 + x_56_66 <= 0
 c243:   - 100 x_66 + x_65_66 <= 0
 c244:   - 100 x_66 + x_67_66 <= 0
 c245:   - 100 x_66 + x_76_66 <= 0
 c246:   - 100 x_67 + x_57_67 <= 0
 c247:   - 100 x_67 + x_66_67 <= 0
 c248:   - 100 x_67 + x_68_67 <= 0
 c249:   - 100 x_67 + x_77_67 <= 0
 c250:   - 100 x_68 + x_58_68 <= 0
 c251:   - 100 x_68 + x_67_68 <= 0
 c252:   - 100 x_68 + x_69_68 <= 0
 c253:   - 100 x_68 + x_78_68 <= 0
 c254:   - 100 x_69 + x_59_69 <= 0
 c255:   - 100 x_69 + x_68_69 <= 0
 c256:   - 100 x_69 + x_70_69 <= 0
 c257:   - 100 x_69 + x_79_69 <= 0
 c258:   - 100 x_70 + x_60_70 <= 0
 c259:   - 100 x_70 + x_69_70 <= 0
 c260:   - 100 x_70 + x_80_70 <= 0
 c261:   - 100 x_71 + x_61_71 <= 0
 c262:   - 100 x_71 + x_72_71 <= 0
 c263:   - 100 x_71 + x_81_71 <= 0
 c264:   - 100 x_72 + x_62_72 <= 0
 c265:   - 100 x_72 + x_71_72 <= 0
 c266:   - 100 x_72 + x_73_72 <= 0
 c267:   - 100 x_72 + x_82_72 <= 0
 c268:   - 100 x_73 + x_63_73 <= 0
 c269:   - 100 x_73 + x_72_73 <= 0
 c270:   - 100 x_73 + x_74_73 <= 0
 c271:   - 100 x_73 + x_83_73 <= 0
 c272:   - 100 x_74 + x_64_74 <= 0
 c273:   - 100 x_74 + x_73_74 <= 0
 c274:   - 100 x_74 + x_75_74 <= 0
 c275:   - 100 x_74 + x_84_74 <= 0
 c276:   - 100 x_75 + x_65_75 <= 0
 c277:   - 100 x_75 + x_74_75 <= 0
 c278:   - 100 x_75 + x_76_75 <= 0
 c279:   - 100 x_75 + x_85_75 <= 0
 c280:   - 100 x_76 + x_66_76 <= 0
 c281:   - 100 x_76 + x_75_76 <= 0
 c282:   - 100 x_76 + x_77_76 <= 0
 c283:   - 100 x_76 + x_86_76 <= 0
 c284:   - 100 x_77 + x_67_77 <= 0
 c285:   - 100 x_77 + x_76_77 <= 0
 c286:   - 100 x_77 + x_78_77 <= 0
 c287:   - 100 x_77 + x_87_77 <= 0
 c288:   - 100 x_78 + x_68_78 <= 0
 c289:   - 100 x_78 + x_77_78 <= 0
 c290:   - 100 x_78 + x_79_78 <= 0
 c291:   - 100 x_78 + x_88_78 <= 0
 c292:   - 100 x_79 + x_69_79 <= 0
 c293:   - 100 x_79 + x_78_79 <= 0
 c294:   - 100 x_79 + x_80_79 <= 0
 c295:   - 100 x_79 + x_89_79 <= 0
 c296:   - 100 x_80 + x_70_80 <= 0
 c297:   - 100 x_80 + x_79_80 <= 0
 c298:   - 100 x_80 + x_90_80 <= 0
 c299:   - 100 x_81 + x_71_81 <= 0
 c300:   - 100 x_81 + x_82_81 <= 0
 c301:   - 100 x_81 + x_91_81 <= 0
 c302:   - 100 x_82 + x_72_82 <= 0
 c303:   - 100 x_82 + x_81_82 <= 0
 c304:   - 100 x_82 + x_83_82 <= 0
 c305:   - 100 x_82 + x_92_82 <= 0
 c306:   - 100 x_83 + x_73_83 <= 0
 c307:   - 100 x_83 + x_82_83 <= 0
 c308:   - 100 x_83 + x_84_83 <= 0
 c309:   - 100 x_83 + x_93_83 <= 0
 c310:   - 100 x_84 + x_74_84 <= 0
 c311:   - 100 x_84 + x_83_84 <= 0
 c312:   - 100 x_84 + x_85_84 <= 0
 c313:   - 100 x_84 + x_94_84 <= 0
 c314:   - 100 x_85 + x_75_85 <= 0
 c315:   - 100 x_85 + x_84_85 <= 0
 c316:   - 100 x_85 + x_86_85 <= 0
 c317:   - 100 x_85 + x_95_85 <= 0
 c318:   - 100 x_86 + x_76_86 <= 0
 c319:   - 100 x_86 + x_85_86 <= 0
 c320:   - 100 x_86 + x_87_86 <= 0
 c321:   - 100 x_86 + x_96_86 <= 0
 c322:   - 100 x_87 + x_77_87 <= 0
 c323:   - 100 x_87 + x_86_87 <= 0
 c324:   - 100 x_87 + x_88_87 <= 0
 c325:   - 100 x_87 + x_97_87 <= 0
 c326:   - 100 x_88 + x_78_88 <= 0
 c327:   - 100 x_88 + x_87_88 <= 0
 c328:   - 100 x_88 + x_89_88 <= 0
 c329:   - 100 x_88 + x_98_88 <= 0
 c330:   - 100 x_89 + x_79_89 <= 0
 c331:   - 100 x_89 + x_88_89 <= 0
 c332:   - 100 x_89 + x_90_89 <= 0
 c333:   - 100 x_89 + x_99_89 <= 0
 c334:   - 100 x_90 + x_80_90 <= 0
 c335:   - 100 x_90 + x_89_90 <= 0
 c336:   - 100 x_90 + x_100_90 <= 0
 c337:   - 100 x_91 + x_81_91 <= 0
 c338:   - 100 x_91 + x_92_91 <= 0
 c339:   - 100 x_92 + x_82_92 <= 0
 c340:   - 100 x_92 + x_91_92 <= 0
 c341:   - 100 x_92 + x_93_92 <= 0
 c342:   - 100 x_93 + x_83_93 <= 0
 c343:   - 100 x_93 + x_92_93 <= 0
 c344:   - 100 x_93 + x_94_93 <= 0
 c345:   - 100 x_94 + x_84_94 <= 0
 c346:   - 100 x_94 + x_93_94 <= 0
 c347:   - 100 x_94 + x_95_94 <= 0
 c348:   - 100 x_95 + x_85_95 <= 0
 c349:   - 100 x_95 + x_94_95 <= 0
 c350:   - 100 x_95 + x_96_95 <= 0
 c351:   - 100 x_96 + x_86_96 <= 0
 c352:   - 100 x_96 + x_95_96 <= 0
 c353:   - 100 x_96 + x_97_96 <= 0
 c354:   - 100 x_97 + x_87_97 <= 0
 c355:   - 100 x_97 + x_96_97 <= 0
 c356:   - 100 x_97 + x_98_97 <= 0
 c357:   - 100 x_98 + x_88_98 <= 0
 c358:   - 100 x_98 + x_97_98 <= 0
 c359:   - 100 x_98 + x_99_98 <= 0
 c360:   - 100 x_99 + x_89_99 <= 0
 c361:   - 100 x_99 + x_98_99 <= 0
 c362:   - 100 x_99 + x_100_99 <= 0
 c363:   - 100 x_100 + x_90_100 <= 0
 c364:   - 100 x_100 + x_99_100 <= 0
 c365:   - x_1 + x_0_1 + x_2_1 + x_11_1 - x_1_2 - x_1_11  = 0
 c366:   - x_2 - x_2_1 + x_1_2 + x_3_2 + x_12_2 - x_2_3 - x_2_12  = 0
 c367:   - x_3 - x_3_2 + x_2_3 + x_4_3 + x_13_3 - x_3_4 - x_3_13  = 0
 c368:   - x_4 - x_4_3 + x_3_4 + x_5_4 + x_14_4 - x_4_5 - x_4_14  = 0
 c369:   - x_5 - x_5_4 + x_4_5 + x_6_5 + x_15_5 - x_5_6 - x_5_15  = 0
 c370:   - x_6 - x_6_5 + x_5_6 + x_7_6 + x_16_6 - x_6_7 - x_6_16  = 0
 c371:   - x_7 - x_7_6 + x_6_7 + x_8_7 + x_17_7 - x_7_8 - x_7_17  = 0
 c372:   - x_8 - x_8_7 + x_7_8 + x_9_8 + x_18_8 - x_8_9 - x_8_18  = 0
 c373:   - x_9 - x_9_8 + x_8_9 + x_10_9 + x_19_9 - x_9_10 - x_9_19  = 0
 c374:   - x_10 - x_10_9 + x_9_10 + x_20_10 - x_10_20  = 0
 c375:   - x_11 - x_11_1 + x_1_11 + x_12_11 + x_21_11 - x_11_12 - x_11_21  = 0
 c376:   - x_12 - x_12_2 - x_12_11 + x_2_12 + x_11_12 + x_13_12 + x_22_12
         - x_12_13 - x_12_22  = 0
 c377:   - x_13 - x_13_3 - x_13_12 + x_3_13 + x_12_13 + x_14_13 + x_23_13
         - x_13_14 - x_13_23  = 0
 c378:   - x_14 - x_14_4 - x_14_13 + x_4_14 + x_13_14 + x_15_14 + x_24_14
         - x_14_15 - x_14_24  = 0
 c379:   - x_15 - x_15_5 - x_15_14 + x_5_15 + x_14_15 + x_16_15 + x_25_15
         - x_15_16 - x_15_25  = 0
 c380:   - x_16 - x_16_6 - x_16_15 + x_6_16 + x_15_16 + x_17_16 + x_26_16
         - x_16_17 - x_16_26  = 0
 c381:   - x_17 - x_17_7 - x_17_16 + x_7_17 + x_16_17 + x_18_17 + x_27_17
         - x_17_18 - x_17_27  = 0
 c382:   - x_18 - x_18_8 - x_18_17 + x_8_18 + x_17_18 + x_19_18 + x_28_18
         - x_18_19 - x_18_28  = 0
 c383:   - x_19 - x_19_9 - x_19_18 + x_9_19 + x_18_19 + x_20_19 + x_29_19
         - x_19_20 - x_19_29  = 0
 c384:   - x_20 - x_20_10 - x_20_19 + x_10_20 + x_19_20 + x_30_20 - x_20_30
          = 0
 c385:   - x_21 - x_21_11 + x_11_21 + x_22_21 + x_31_21 - x_21_22 - x_21_31
          = 0
 c386:   - x_22 - x_22_12 - x_22_21 + x_12_22 + x_21_22 + x_23_22 + x_32_22
         - x_22_23 - x_22_32  = 0
 c387:   - x_23 - x_23_13 - x_23_22 + x_13_23 + x_22_23 + x_24_23 + x_33_23
         - x_23_24 - x_23_33  = 0
 c388:   - x_24 - x_24_14 - x_24_23 + x_14_24 + x_23_24 + x_25_24 + x_34_24
         - x_24_25 - x_24_34  = 0
 c389:   - x_25 - x_25_15 - x_25_24 + x_15_25 + x_24_25 + x_26_25 + x_35_25
         - x_25_26 - x_25_35  = 0
 c390:   - x_26 - x_26_16 - x_26_25 + x_16_26 + x_25_26 + x_27_26 + x_36_26
         - x_26_27 - x_26_36  = 0
 c391:   - x_27 - x_27_17 - x_27_26 + x_17_27 + x_26_27 + x_28_27 + x_37_27
         - x_27_28 - x_27_37  = 0
 c392:   - x_28 - x_28_18 - x_28_27 + x_18_28 + x_27_28 + x_29_28 + x_38_28
         - x_28_29 - x_28_38  = 0
 c393:   - x_29 - x_29_19 - x_29_28 + x_19_29 + x_28_29 + x_30_29 + x_39_29
         - x_29_30 - x_29_39  = 0
 c394:   - x_30 - x_30_20 - x_30_29 + x_20_30 + x_29_30 + x_40_30 - x_30_40
          = 0
 c395:   - x_31 - x_31_21 + x_21_31 + x_32_31 + x_41_31 - x_31_32 - x_31_41
          = 0
 c396:   - x_32 - x_32_22 - x_32_31 + x_22_32 + x_31_32 + x_33_32 + x_42_32
         - x_32_33 - x_32_42  = 0
 c397:   - x_33 - x_33_23 - x_33_32 + x_23_33 + x_32_33 + x_34_33 + x_43_33
         - x_33_34 - x_33_43  = 0
 c398:   - x_34 - x_34_24 - x_34_33 + x_24_34 + x_33_34 + x_35_34 + x_44_34
         - x_34_35 - x_34_44  = 0
 c399:   - x_35 - x_35_25 - x_35_34 + x_25_35 + x_34_35 + x_36_35 + x_45_35
         - x_35_36 - x_35_45  = 0
 c400:   - x_36 - x_36_26 - x_36_35 + x_26_36 + x_35_36 + x_37_36 + x_46_36
         - x_36_37 - x_36_46  = 0
 c401:   - x_37 - x_37_27 - x_37_36 + x_27_37 + x_36_37 + x_38_37 + x_47_37
         - x_37_38 - x_37_47  = 0
 c402:   - x_38 - x_38_28 - x_38_37 + x_28_38 + x_37_38 + x_39_38 + x_48_38
         - x_38_39 - x_38_48  = 0
 c403:   - x_39 - x_39_29 - x_39_38 + x_29_39 + x_38_39 + x_40_39 + x_49_39
         - x_39_40 - x_39_49  = 0
 c404:   - x_40 - x_40_30 - x_40_39 + x_30_40 + x_39_40 + x_50_40 - x_40_50
          = 0
 c405:   - x_41 - x_41_31 + x_31_41 + x_42_41 + x_51_41 - x_41_42 - x_41_51
          = 0
 c406:   - x_42 - x_42_32 - x_42_41 + x_32_42 + x_41_42 + x_43_42 + x_52_42
         - x_42_43 - x_42_52  = 0
 c407:   - x_43 - x_43_33 - x_43_42 + x_33_43 + x_42_43 + x_44_43 + x_53_43
         - x_43_44 - x_43_53  = 0
 c408:   - x_44 - x_44_34 - x_44_43 + x_34_44 + x_43_44 + x_45_44 + x_54_44
         - x_44_45 - x_44_54  = 0
 c409:   - x_45 - x_45_35 - x_45_44 + x_35_45 + x_44_45 + x_46_45 + x_55_45
         - x_45_46 - x_45_55  = 0
 c410:   - x_46 - x_46_36 - x_46_45 + x_36_46 + x_45_46 + x_47_46 + x_56_46
         - x_46_47 - x_46_56  = 0
 c411:   - x_47 - x_47_37 - x_47_46 + x_37_47 + x_46_47 + x_48_47 + x_57_47
         - x_47_48 - x_47_57  = 0
 c412:   - x_48 - x_48_38 - x_48_47 + x_38_48 + x_47_48 + x_49_48 + x_58_48
         - x_48_49 - x_48_58  = 0
 c413:   - x_49 - x_49_39 - x_49_48 + x_39_49 + x_48_49 + x_50_49 + x_59_49
         - x_49_50 - x_49_59  = 0
 c414:   - x_50 - x_50_40 - x_50_49 + x_40_50 + x_49_50 + x_60_50 - x_50_60
          = 0
 c415:   - x_51 - x_51_41 + x_41_51 + x_52_51 + x_61_51 - x_51_52 - x_51_61
          = 0
 c416:   - x_52 - x_52_42 - x_52_51 + x_42_52 + x_51_52 + x_53_52 + x_62_52
         - x_52_53 - x_52_62  = 0
 c417:   - x_53 - x_53_43 - x_53_52 + x_43_53 + x_52_53 + x_54_53 + x_63_53
         - x_53_54 - x_53_63  = 0
 c418:   - x_54 - x_54_44 - x_54_53 + x_44_54 + x_53_54 + x_55_54 + x_64_54
         - x_54_55 - x_54_64  = 0
 c419:   - x_55 - x_55_45 - x_55_54 + x_45_55 + x_54_55 + x_56_55 + x_65_55
         - x_55_56 - x_55_65  = 0
 c420:   - x_56 - x_56_46 - x_56_55 + x_46_56 + x_55_56 + x_57_56 + x_66_56
         - x_56_57 - x_56_66  = 0
 c421:   - x_57 - x_57_47 - x_57_56 + x_47_57 + x_56_57 + x_58_57 + x_67_57
         - x_57_58 - x_57_67  = 0
 c422:   - x_58 - x_58_48 - x_58_57 + x_48_58 + x_57_58 + x_59_58 + x_68_58
         - x_58_59 - x_58_68  = 0
 c423:   - x_59 - x_59_49 - x_59_58 + x_49_59 + x_58_59 + x_60_59 + x_69_59
         - x_59_60 - x_59_69  = 0
 c424:   - x_60 - x_60_50 - x_60_59 + x_50_60 + x_59_60 + x_70_60 - x_60_70
          = 0
 c425:   - x_61 - x_61_51 + x_51_61 + x_62_61 + x_71_61 - x_61_62 - x_61_71
          = 0
 c426:   - x_62 - x_62_52 - x_62_61 + x_52_62 + x_61_62 + x_63_62 + x_72_62
         - x_62_63 - x_62_72  = 0
 c427:   - x_63 - x_63_53 - x_63_62 + x_53_63 + x_62_63 + x_64_63 + x_73_63
         - x_63_64 - x_63_73  = 0
 c428:   - x_64 - x_64_54 - x_64_63 + x_54_64 + x_63_64 + x_65_64 + x_74_64
         - x_64_65 - x_64_74  = 0
 c429:   - x_65 - x_65_55 - x_65_64 + x_55_65 + x_64_65 + x_66_65 + x_75_65
         - x_65_66 - x_65_75  = 0
 c430:   - x_66 - x_66_56 - x_66_65 + x_56_66 + x_65_66 + x_67_66 + x_76_66
         - x_66_67 - x_66_76  = 0
 c431:   - x_67 - x_67_57 - x_67_66 + x_57_67 + x_66_67 + x_68_67 + x_77_67
         - x_67_68 - x_67_77  = 0
 c432:   - x_68 - x_68_58 - x_68_67 + x_58_68 + x_67_68 + x_69_68 + x_78_68
         - x_68_69 - x_68_78  = 0
 c433:   - x_69 - x_69_59 - x_69_68 + x_59_69 + x_68_69 + x_70_69 + x_79_69
         - x_69_70 - x_69_79  = 0
 c434:   - x_70 - x_70_60 - x_70_69 + x_60_70 + x_69_70 + x_80_70 - x_70_80
          = 0
 c435:   - x_71 - x_71_61 + x_61_71 + x_72_71 + x_81_71 - x_71_72 - x_71_81
          = 0
 c436:   - x_72 - x_72_62 - x_72_71 + x_62_72 + x_71_72 + x_73_72 + x_82_72
         - x_72_73 - x_72_82  = 0
 c437:   - x_73 - x_73_63 - x_73_72 + x_63_73 + x_72_73 + x_74_73 + x_83_73
         - x_73_74 - x_73_83  = 0
 c438:   - x_74 - x_74_64 - x_74_73 + x_64_74 + x_73_74 + x_75_74 + x_84_74
         - x_74_75 - x_74_84  = 0
 c439:   - x_75 - x_75_65 - x_75_74 + x_65_75 + x_74_75 + x_76_75 + x_85_75
         - x_75_76 - x_75_85  = 0
 c440:   - x_76 - x_76_66 - x_76_75 + x_66_76 + x_75_76 + x_77_76 + x_86_76
         - x_76_77 - x_76_86  = 0
 c441:   - x_77 - x_77_67 - x_77_76 + x_67_77 + x_76_77 + x_78_77 + x_87_77
         - x_77_78 - x_77_87  = 0
 c442:   - x_78 - x_78_68 - x_78_77 + x_68_78 + x_77_78 + x_79_78 + x_88_78
         - x_78_79 - x_78_88  = 0
 c443:   - x_79 - x_79_69 - x_79_78 + x_69_79 + x_78_79 + x_80_79 + x_89_79
         - x_79_80 - x_79_89  = 0
 c444:   - x_80 - x_80_70 - x_80_79 + x_70_80 + x_79_80 + x_90_80 - x_80_90
          = 0
 c445:   - x_81 - x_81_71 + x_71_81 + x_82_81 + x_91_81 - x_81_82 - x_81_91
          = 0
 c446:   - x_82 - x_82_72 - x_82_81 + x_72_82 + x_81_82 + x_83_82 + x_92_82
         - x_82_83 - x_82_92  = 0
 c447:   - x_83 - x_83_73 - x_83_82 + x_73_83 + x_82_83 + x_84_83 + x_93_83
         - x_83_84 - x_83_93  = 0
 c448:   - x_84 - x_84_74 - x_84_83 + x_74_84 + x_83_84 + x_85_84 + x_94_84
         - x_84_85 - x_84_94  = 0
 c449:   - x_85 - x_85_75 - x_85_84 + x_75_85 + x_84_85 + x_86_85 + x_95_85
         - x_85_86 - x_85_95  = 0
 c450:   - x_86 - x_86_76 - x_86_85 + x_76_86 + x_85_86 + x_87_86 + x_96_86
         - x_86_87 - x_86_96  = 0
 c451:   - x_87 - x_87_77 - x_87_86 + x_77_87 + x_86_87 + x_88_87 + x_97_87
         - x_87_88 - x_87_97  = 0
 c452:   - x_88 - x_88_78 - x_88_87 + x_78_88 + x_87_88 + x_89_88 + x_98_88
         - x_88_89 - x_88_98  = 0
 c453:   - x_89 - x_89_79 - x_89_88 + x_79_89 + x_88_89 + x_90_89 + x_99_89
         - x_89_90 - x_89_99  = 0
 c454:   - x_90 - x_90_80 - x_90_89 + x_80_90 + x_89_90 + x_100_90 - x_90_100
          = 0
 c455:   - x_91 - x_91_81 + x_81_91 + x_92_91 - x_91_92  = 0
 c456:   - x_92 - x_92_82 - x_92_91 + x_82_92 + x_91_92 + x_93_92 - x_92_93
          = 0
 c457:   - x_93 - x_93_83 - x_93_92 + x_83_93 + x_92_93 + x_94_93 - x_93_94
          = 0
 c458:   - x_94 - x_94_84 - x_94_93 + x_84_94 + x_93_94 + x_95_94 - x_94_95
          = 0
 c459:   - x_95 - x_95_85 - x_95_94 + x_85_95 + x_94_95 + x_96_95 - x_95_96
          = 0
 c460:   - x_96 - x_96_86 - x_96_95 + x_86_96 + x_95_96 + x_97_96 - x_96_97
          = 0
 c461:   - x_97 - x_97_87 - x_97_96 + x_87_97 + x_96_97 + x_98_97 - x_97_98
          = 0
 c462:   - x_98 - x_98_88 - x_98_97 + x_88_98 + x_97_98 + x_99_98 - x_98_99
          = 0
 c463:   - x_99 - x_99_89 - x_99_98 + x_89_99 + x_98_99 + x_100_99 - x_99_100
          = 0
 c464:   - x_100 - x_100_90 - x_100_99 + x_90_100 + x_99_100  = 0
 c465:   - 100 x_1 + x_0_1 <= 0
 c466:   x_1  = 1
 c467:   x_71  = 1
 c468:   x_100  = 1
 c469:   dummy  = 0
 id1406: b  = 106
 id1408: x_10  = 0
Bounds
 0 <= x_1 <= 1
 0 <= x_2 <= 1
 0 <= x_3 <= 1
 0 <= x_4 <= 1
 0 <= x_5 <= 1
 0 <= x_6 <= 1
 0 <= x_7 <= 1
 0 <= x_8 <= 1
 0 <= x_9 <= 1
 0 <= x_10 <= 1
 0 <= x_11 <= 1
 0 <= x_12 <= 1
 0 <= x_13 <= 1
 0 <= x_14 <= 1
 0 <= x_15 <= 1
 0 <= x_16 <= 1
 0 <= x_17 <= 1
 0 <= x_18 <= 1
 0 <= x_19 <= 1
 0 <= x_20 <= 1
 0 <= x_21 <= 1
 0 <= x_22 <= 1
 0 <= x_23 <= 1
 0 <= x_24 <= 1
 0 <= x_25 <= 1
 0 <= x_26 <= 1
 0 <= x_27 <= 1
 0 <= x_28 <= 1
 0 <= x_29 <= 1
 0 <= x_30 <= 1
 0 <= x_31 <= 1
 0 <= x_32 <= 1
 0 <= x_33 <= 1
 0 <= x_34 <= 1
 0 <= x_35 <= 1
 0 <= x_36 <= 1
 0 <= x_37 <= 1
 0 <= x_38 <= 1
 0 <= x_39 <= 1
 0 <= x_40 <= 1
 0 <= x_41 <= 1
 0 <= x_42 <= 1
 0 <= x_43 <= 1
 0 <= x_44 <= 1
 0 <= x_45 <= 1
 0 <= x_46 <= 1
 0 <= x_47 <= 1
 0 <= x_48 <= 1
 0 <= x_49 <= 1
 0 <= x_50 <= 1
 0 <= x_51 <= 1
 0 <= x_52 <= 1
 0 <= x_53 <= 1
 0 <= x_54 <= 1
 0 <= x_55 <= 1
 0 <= x_56 <= 1
 0 <= x_57 <= 1
 0 <= x_58 <= 1
 0 <= x_59 <= 1
 0 <= x_60 <= 1
 0 <= x_61 <= 1
 0 <= x_62 <= 1
 0 <= x_63 <= 1
 0 <= x_64 <= 1
 0 <= x_65 <= 1
 0 <= x_66 <= 1
 0 <= x_67 <= 1
 0 <= x_68 <= 1
 0 <= x_69 <= 1
 0 <= x_70 <= 1
 0 <= x_71 <= 1
 0 <= x_72 <= 1
 0 <= x_73 <= 1
 0 <= x_74 <= 1
 0 <= x_75 <= 1
 0 <= x_76 <= 1
 0 <= x_77 <= 1
 0 <= x_78 <= 1
 0 <= x_79 <= 1
 0 <= x_80 <= 1
 0 <= x_81 <= 1
 0 <= x_82 <= 1
 0 <= x_83 <= 1
 0 <= x_84 <= 1
 0 <= x_85 <= 1
 0 <= x_86 <= 1
 0 <= x_87 <= 1
 0 <= x_88 <= 1
 0 <= x_89 <= 1
 0 <= x_90 <= 1
 0 <= x_91 <= 1
 0 <= x_92 <= 1
 0 <= x_93 <= 1
 0 <= x_94 <= 1
 0 <= x_95 <= 1
 0 <= x_96 <= 1
 0 <= x_97 <= 1
 0 <= x_98 <= 1
 0 <= x_99 <= 1
 0 <= x_100 <= 1
      obj = 0
Binaries
 x_1  x_2  x_3  x_4  x_5  x_6  x_7  x_8  x_9  x_10  x_11  x_12  x_13  x_14 
 x_15  x_16  x_17  x_18  x_19  x_20  x_21  x_22  x_23  x_24  x_25  x_26  x_27 
 x_28  x_29  x_30  x_31  x_32  x_33  x_34  x_35  x_36  x_37  x_38  x_39  x_40 
 x_41  x_42  x_43  x_44  x_45  x_46  x_47  x_48  x_49  x_50  x_51  x_52  x_53 
 x_54  x_55  x_56  x_57  x_58  x_59  x_60  x_61  x_62  x_63  x_64  x_65  x_66 
 x_67  x_68  x_69  x_70  x_71  x_72  x_73  x_74  x_75  x_76  x_77  x_78  x_79 
 x_80  x_81  x_82  x_83  x_84  x_85  x_86  x_87  x_88  x_89  x_90  x_91  x_92 
 x_93  x_94  x_95  x_96  x_97  x_98  x_99  x_100 
End
